521,325
439,230
469,194
999,724
948,270
729,371
681,406
789,619
948,542
1214,490
839,188
536,301
576,261
611,309
1166,563
649,613
681,676
871,596
996,177
681,196
705,423
685,377
596,379
311,526
621,406
644,169
607,178
755,178
